c map5.map
p cnf 180 89
-3 -4 0
-3 -5 0
-4 -5 0
-1 -2 0
-2 -5 0
-1 -4 0
-5 1 0
-4 2 0
-33 -34 0
-33 -35 0
-34 -35 0
-31 -32 0
-32 -35 0
-31 -34 0
-35 31 0
-34 32 0
-63 -64 0
-63 -65 0
-64 -65 0
-61 -62 0
-62 -65 0
-61 -64 0
-65 61 0
-64 62 0
-93 -94 0
-93 -95 0
-94 -95 0
-91 -92 0
-92 -95 0
-91 -94 0
-95 91 0
-94 92 0
-123 -124 0
-123 -125 0
-124 -125 0
-121 -122 0
-122 -125 0
-121 -124 0
-125 121 0
-124 122 0
-153 -154 0
-153 -155 0
-154 -155 0
-151 -152 0
-152 -155 0
-151 -154 0
-155 151 0
-154 152 0
-9 -10 0
-9 -11 0
-10 -11 0
-7 -8 0
-8 -11 0
-7 -10 0
-11 7 0
-10 8 0
-39 -40 0
-39 -41 0
-40 -41 0
-37 -38 0
-38 -41 0
-37 -40 0
-41 37 0
-40 38 0
-69 -70 0
-69 -71 0
-70 -71 0
-67 -68 0
-68 -71 0
-67 -70 0
-71 67 0
-70 68 0
-99 -100 0
-99 -101 0
-100 -101 0
-97 -98 0
-98 -101 0
-97 -100 0
-101 97 0
-100 98 0
-129 -130 0
-129 -131 0
-130 -131 0
-127 -128 0
-128 -131 0
-127 -130 0
-131 127 0
-130 128 0
-159 -160 0
-159 -161 0
-160 -161 0
-157 -158 0
-158 -161 0
-157 -160 0
-161 157 0
-160 158 0
-15 -16 0
-15 -17 0
-16 -17 0
-13 -14 0
-14 -17 0
-13 -16 0
-17 13 0
-16 14 0
-45 -46 0
-45 -47 0
-46 -47 0
-43 -44 0
-44 -47 0
-43 -46 0
-47 43 0
-46 44 0
-75 -76 0
-75 -77 0
-76 -77 0
-73 -74 0
-74 -77 0
-73 -76 0
-77 73 0
-76 74 0
-105 -106 0
-105 -107 0
-106 -107 0
-103 -104 0
-104 -107 0
-103 -106 0
-107 103 0
-106 104 0
-135 -136 0
-135 -137 0
-136 -137 0
-133 -134 0
-134 -137 0
-133 -136 0
-137 133 0
-136 134 0
-165 -166 0
-165 -167 0
-166 -167 0
-163 -164 0
-164 -167 0
-163 -166 0
-167 163 0
-166 164 0
-21 -22 0
-21 -23 0
-22 -23 0
-19 -20 0
-20 -23 0
-19 -22 0
-23 19 0
-22 20 0
-51 -52 0
-51 -53 0
-52 -53 0
-49 -50 0
-50 -53 0
-49 -52 0
-53 49 0
-52 50 0
-81 -82 0
-81 -83 0
-82 -83 0
-79 -80 0
-80 -83 0
-79 -82 0
-83 79 0
-82 80 0
-111 -112 0
-111 -113 0
-112 -113 0
-109 -110 0
-110 -113 0
-109 -112 0
-113 109 0
-112 110 0
-141 -142 0
-141 -143 0
-142 -143 0
-139 -140 0
-140 -143 0
-139 -142 0
-143 139 0
-142 140 0
-171 -172 0
-171 -173 0
-172 -173 0
-169 -170 0
-170 -173 0
-169 -172 0
-173 169 0
-172 170 0
-27 -28 0
-27 -29 0
-28 -29 0
-25 -26 0
-26 -29 0
-25 -28 0
-29 25 0
-28 26 0
-57 -58 0
-57 -59 0
-58 -59 0
-55 -56 0
-56 -59 0
-55 -58 0
-59 55 0
-58 56 0
-87 -88 0
-87 -89 0
-88 -89 0
-85 -86 0
-86 -89 0
-85 -88 0
-89 85 0
-88 86 0
-117 -118 0
-117 -119 0
-118 -119 0
-115 -116 0
-116 -119 0
-115 -118 0
-119 115 0
-118 116 0
-147 -148 0
-147 -149 0
-148 -149 0
-145 -146 0
-146 -149 0
-145 -148 0
-149 145 0
-148 146 0
-177 -178 0
-177 -179 0
-178 -179 0
-175 -176 0
-176 -179 0
-175 -178 0
-179 175 0
-178 176 0
-141 0
-142 0
-143 0
-142 0
-142 0
-143 0
-141 0
139 0
-140 0
-105 0
-135 0
-165 0
-111 0
-171 0
-117 0
-147 0
-177 0
-106 -136 0
-106 -166 0
-106 -112 0
-106 -172 0
-106 -118 0
-106 -148 0
-106 -178 0
-136 -166 0
-136 -112 0
-136 -172 0
-136 -118 0
-136 -148 0
-136 -178 0
-166 -112 0
-166 -172 0
-166 -118 0
-166 -148 0
-166 -178 0
-112 -172 0
-112 -118 0
-112 -148 0
-112 -178 0
-172 -118 0
-172 -148 0
-172 -178 0
-118 -148 0
-118 -178 0
-148 -178 0
106 136 166 112 172 118 148 178 0
-107 0
-137 0
-167 0
-113 0
-173 0
-119 0
-149 0
-179 0
103 0
-104 0
133 0
-134 0
163 0
-164 0
109 0
-110 0
169 0
-170 0
115 0
-116 0
145 0
-146 0
175 0
-176 0
-178 0
-179 0
-177 0
-141 0
-171 0
-147 0
-142 -172 0
-142 -148 0
-172 -148 0
142 172 148 0
-143 0
-173 0
-149 0
-148 0
-149 0
-147 0
